16
1 0 7
2 0 8
2 1 1
3 0 4
3 1 9
3 2 6
4 0 7
4 1 8
4 2 9
4 3 6
5 0 9
5 1 3
5 2 3
5 3 4
5 4 10
6 0 3
6 1 9
6 2 9
6 3 9
6 4 7
6 5 2
7 0 7
7 1 1
7 2 1
7 3 1
7 4 5
7 5 4
7 6 3
8 0 10
8 1 8
8 2 8
8 3 10
8 4 4
8 5 3
8 6 8
8 7 7
9 0 6
9 1 6
9 2 6
9 3 7
9 4 2
9 5 6
9 6 4
9 7 1
9 8 7
10 0 3
10 1 2
10 2 2
10 3 2
10 4 7
10 5 8
10 6 7
10 7 2
10 8 8
10 9 9
11 0 9
11 1 8
11 2 5
11 3 4
11 4 2
11 5 6
11 6 1
11 7 9
11 8 9
11 9 8
11 10 3
12 0 7
12 1 4
12 2 8
12 3 1
12 4 8
12 5 5
12 6 3
12 7 4
12 8 9
12 9 7
12 10 4
12 11 2
13 0 9
13 1 6
13 2 8
13 3 3
13 4 4
13 5 9
13 6 10
13 7 5
13 8 4
13 9 1
13 10 8
13 11 2
13 12 6
14 0 7
14 1 3
14 2 8
14 3 10
14 4 8
14 5 3
14 6 4
14 7 5
14 8 5
14 9 4
14 10 10
14 11 10
14 12 2
14 13 10
15 0 6
15 1 3
15 2 5
15 3 6
15 4 8
15 5 7
15 6 4
15 7 8
15 8 7
15 9 8
15 10 1
15 11 7
15 12 1
15 13 9
15 14 1
